language ESSENCE' 1.0

letting jobs = 102
letting horizon = 797
letting resourcesRenew = 2
letting resourcesNonrenew = 2
letting resourceLimits = [16, 16, 485, 470]
letting successors = [[2, 3, 4, 5, 6, 8, 10, 14, 15, 16, 18, 20], [35, 30, 17, 13, 9, 7], [36, 35, 29, 27, 26, 24, 21, 19, 11], [35, 29, 27, 24, 22, 21, 19, 11], [35, 26, 21, 19, 17, 11, 9], [30, 26, 17, 7], [37, 36, 29, 27, 25, 24, 23, 19], [36, 29, 19, 12], [43, 37, 36, 29, 28, 25, 23], [29, 26, 24, 23, 19], [43, 40, 37, 30, 25, 23], [43, 37, 30, 24, 23], [43, 40, 26, 25, 23], [43, 40, 37, 26, 23], [43, 40, 38, 37, 36, 34, 33, 32, 31], [43, 38, 34, 33, 32, 31, 29], [43, 40, 36, 25], [43, 38, 28, 25], [43, 39, 34, 33, 32, 31, 28], [47, 36, 34, 33, 29], [48, 47, 45, 43, 42, 37, 34, 31], [50, 48, 44, 42, 37, 36, 34, 32], [39, 38, 34, 33, 32, 31], [50, 48, 46, 44, 41, 40, 39, 38, 32], [50, 47, 45, 39, 34, 33, 31], [50, 46, 42, 41, 39, 32], [57, 53, 52, 51, 50, 48, 47, 46, 44, 42], [57, 53, 52, 51, 50, 48, 46, 42], [52, 50, 45, 40, 39], [58, 53, 52, 51, 50, 46, 45, 42], [61, 58, 57, 54, 53, 52, 51, 49, 46, 44], [64, 61, 57, 53, 52, 51, 49, 47, 45], [53, 52, 51, 48, 44, 42], [61, 57, 51, 46, 41], [57, 50, 47, 42, 39], [53, 52, 45, 39], [57, 46, 39], [58, 57, 56, 42], [64, 61, 58, 54, 51, 49], [67, 64, 61, 58, 57, 54, 53, 51], [58, 56, 54, 53, 52, 49], [65, 64, 61, 54, 49], [58, 54, 50, 46], [69, 68, 67, 65, 60, 59, 56], [69, 68, 67, 65, 60, 54], [65, 64, 63, 59, 55], [74, 70, 69, 60, 59, 58], [68, 63, 60, 59, 58], [75, 71, 68, 55], [75, 71, 69, 67, 65, 60], [75, 65, 56], [74, 71, 70, 69, 65, 60], [70, 66, 65, 63, 59], [70, 63, 62, 59], [70, 69, 67, 60], [71, 70, 63, 62], [74, 73, 69, 62], [76, 75, 73, 72, 66, 65], [86, 81, 79, 77, 76, 75, 73, 72, 71], [73, 62], [76, 73, 70, 68, 66], [78, 77, 76, 72, 66], [81, 79, 78, 77, 74, 73], [81, 77, 76, 70], [86, 85, 84, 81, 80, 78, 77], [95, 94, 88, 87, 86, 84, 82, 81, 79], [82, 74, 72], [95, 89, 88, 87, 85, 84, 80, 77], [95, 87, 85, 84, 81, 79], [96, 95, 89, 87, 86, 85, 82, 80], [91, 90, 84, 78], [95, 89, 88, 87, 85, 80], [96, 95, 94, 92, 90, 89, 87, 83], [100, 93, 91, 90, 87, 85, 84], [95, 94, 93, 91, 87, 84, 82], [95, 91, 90, 89, 87, 84], [94, 91, 90, 83, 82], [95, 94, 87, 83, 82], [91, 89, 80], [100, 92, 90, 83], [100, 90, 89], [101, 100, 99, 98, 92], [101, 99, 98, 93], [99, 98, 96, 92], [99, 98, 94, 92], [100, 99, 91], [99, 98, 97], [99, 98, 97], [98, 93], [101, 97], [92], [97], [97], [97], [100], [97], [102], [102], [102], [102], [102], []]
letting durations = [[0], [1, 9, 10], [1, 4, 6], [4, 6, 9], [2, 4, 7], [4, 8, 9], [6, 9, 10], [4, 5, 8], [2, 6, 10], [4, 5, 8], [4, 5, 8], [2, 8, 9], [3, 4, 5], [6, 7, 8], [4, 6, 7], [3, 6, 10], [1, 2, 5], [4, 6, 7], [2, 5, 8], [1, 2, 10], [1, 3, 4], [1, 4, 5], [1, 6, 8], [2, 8, 9], [2, 3, 7], [3, 5, 7], [4, 8, 9], [2, 3, 9], [5, 6, 8], [2, 4, 7], [4, 5, 7], [2, 3, 7], [2, 3, 4], [3, 4, 5], [1, 5, 8], [4, 7, 8], [1, 8, 10], [4, 8, 9], [3, 4, 6], [1, 2, 3], [1, 3, 8], [1, 2, 7], [4, 5, 8], [5, 9, 10], [1, 5, 10], [2, 8, 10], [1, 5, 7], [5, 6, 9], [5, 6, 9], [6, 9, 10], [6, 7, 10], [4, 5, 6], [4, 6, 9], [5, 6, 10], [2, 3, 8], [8, 9, 10], [1, 6, 7], [1, 7, 8], [5, 8, 10], [5, 9, 10], [5, 6, 7], [3, 8, 9], [2, 5, 10], [3, 4, 10], [2, 5, 7], [4, 9, 10], [2, 3, 10], [1, 9, 10], [2, 3, 4], [2, 6, 10], [4, 7, 8], [3, 4, 5], [4, 5, 6], [1, 8, 9], [1, 2, 7], [1, 2, 5], [2, 3, 9], [1, 7, 9], [1, 2, 3], [5, 6, 7], [1, 2, 6], [2, 5, 10], [1, 7, 8], [3, 4, 5], [4, 9, 10], [1, 3, 7], [6, 8, 9], [1, 3, 6], [1, 2, 10], [1, 9, 10], [2, 4, 8], [1, 5, 7], [3, 4, 10], [4, 6, 10], [2, 6, 9], [6, 7, 10], [1, 3, 7], [2, 6, 7], [5, 7, 9], [3, 9, 10], [2, 3, 4], [0]]
letting resourceUsage = [[[0, 0, 0, 0]], [[4, 4, 8, 2], [2, 4, 4, 2], [2, 4, 3, 1]], [[3, 5, 3, 8], [3, 3, 2, 8], [3, 1, 2, 7]], [[3, 4, 10, 8], [3, 3, 7, 5], [3, 3, 6, 4]], [[5, 3, 10, 10], [5, 2, 10, 8], [5, 2, 10, 7]], [[5, 5, 4, 8], [4, 3, 3, 8], [2, 3, 3, 5]], [[5, 4, 6, 7], [3, 3, 5, 4], [2, 3, 3, 3]], [[4, 4, 8, 8], [4, 3, 6, 8], [3, 2, 6, 8]], [[3, 3, 10, 1], [3, 2, 9, 1], [2, 2, 8, 1]], [[3, 4, 3, 9], [3, 3, 2, 5], [2, 3, 2, 5]], [[3, 3, 6, 8], [3, 3, 6, 7], [2, 3, 4, 6]], [[1, 3, 2, 8], [1, 3, 1, 5], [1, 3, 1, 4]], [[3, 4, 6, 3], [2, 3, 3, 3], [1, 2, 1, 1]], [[4, 4, 7, 10], [4, 2, 3, 8], [4, 1, 1, 5]], [[5, 4, 9, 5], [5, 4, 9, 4], [5, 3, 8, 4]], [[5, 5, 2, 9], [4, 4, 1, 4], [2, 3, 1, 2]], [[2, 1, 7, 9], [1, 1, 7, 7], [1, 1, 7, 5]], [[3, 4, 6, 6], [3, 4, 6, 5], [3, 4, 4, 6]], [[4, 5, 9, 7], [4, 4, 6, 7], [3, 4, 3, 7]], [[5, 3, 6, 5], [4, 3, 5, 4], [3, 3, 5, 2]], [[5, 4, 6, 1], [3, 4, 5, 1], [2, 4, 5, 1]], [[3, 4, 9, 2], [2, 4, 4, 2], [2, 4, 2, 2]], [[5, 2, 5, 9], [4, 2, 5, 8], [4, 2, 5, 7]], [[4, 2, 6, 5], [2, 2, 4, 5], [1, 2, 4, 3]], [[3, 4, 6, 6], [2, 2, 6, 4], [1, 1, 6, 3]], [[4, 2, 3, 8], [4, 2, 3, 5], [4, 2, 2, 3]], [[4, 2, 10, 8], [3, 1, 9, 8], [2, 1, 9, 5]], [[4, 2, 7, 8], [2, 1, 4, 8], [2, 1, 3, 7]], [[2, 4, 6, 8], [1, 2, 6, 6], [1, 2, 5, 6]], [[5, 4, 4, 7], [3, 4, 3, 7], [2, 4, 3, 6]], [[4, 5, 9, 7], [4, 5, 7, 4], [4, 5, 6, 2]], [[4, 5, 4, 8], [4, 4, 4, 6], [3, 4, 4, 6]], [[3, 5, 3, 4], [2, 3, 3, 3], [2, 3, 3, 2]], [[3, 5, 8, 5], [3, 3, 7, 4], [3, 2, 7, 2]], [[5, 2, 4, 3], [4, 1, 3, 2], [3, 1, 2, 2]], [[4, 4, 9, 9], [4, 3, 6, 8], [4, 2, 4, 8]], [[2, 2, 7, 3], [1, 2, 6, 2], [1, 2, 6, 1]], [[5, 2, 7, 9], [4, 2, 7, 8], [4, 2, 7, 7]], [[2, 1, 3, 3], [2, 1, 3, 2], [1, 1, 2, 1]], [[5, 2, 7, 5], [5, 2, 6, 4], [5, 2, 5, 3]], [[2, 2, 6, 8], [2, 1, 6, 8], [1, 1, 5, 6]], [[3, 4, 8, 6], [2, 4, 5, 6], [2, 4, 5, 5]], [[1, 3, 6, 9], [1, 2, 4, 7], [1, 2, 2, 7]], [[2, 2, 4, 7], [1, 2, 4, 7], [1, 2, 4, 2]], [[3, 1, 7, 4], [2, 1, 5, 4], [2, 1, 5, 3]], [[5, 4, 9, 9], [4, 4, 8, 9], [3, 4, 6, 9]], [[5, 4, 8, 9], [2, 4, 6, 7], [2, 3, 3, 6]], [[2, 4, 7, 8], [2, 3, 5, 7], [2, 1, 5, 7]], [[4, 2, 8, 3], [3, 1, 6, 3], [3, 1, 6, 1]], [[3, 4, 6, 5], [2, 3, 4, 5], [1, 2, 3, 5]], [[4, 5, 9, 8], [3, 3, 7, 5], [2, 1, 6, 3]], [[3, 3, 7, 4], [3, 2, 7, 3], [3, 2, 6, 3]], [[4, 4, 7, 7], [2, 4, 3, 3], [2, 4, 1, 1]], [[4, 2, 8, 8], [4, 2, 4, 6], [4, 2, 2, 1]], [[5, 2, 10, 8], [4, 2, 7, 4], [4, 2, 6, 4]], [[4, 2, 4, 9], [3, 1, 3, 7], [3, 1, 2, 7]], [[4, 5, 6, 5], [4, 4, 6, 5], [4, 2, 4, 3]], [[3, 5, 4, 7], [2, 4, 4, 7], [1, 4, 4, 7]], [[2, 4, 9, 8], [2, 4, 9, 7], [2, 4, 9, 6]], [[5, 2, 10, 5], [4, 2, 6, 3], [4, 2, 4, 3]], [[4, 2, 7, 9], [3, 2, 7, 4], [2, 2, 7, 2]], [[3, 5, 5, 6], [2, 4, 5, 4], [2, 4, 5, 3]], [[3, 4, 6, 6], [2, 3, 4, 4], [2, 2, 3, 3]], [[2, 4, 7, 4], [2, 3, 4, 3], [2, 3, 4, 1]], [[4, 5, 2, 7], [3, 4, 1, 4], [2, 4, 1, 3]], [[3, 2, 9, 7], [2, 2, 5, 6], [2, 2, 4, 6]], [[3, 5, 5, 5], [1, 3, 3, 3], [1, 3, 3, 1]], [[3, 1, 5, 4], [2, 1, 4, 3], [2, 1, 4, 1]], [[5, 4, 2, 9], [2, 3, 1, 8], [1, 1, 1, 6]], [[2, 5, 8, 8], [2, 3, 8, 6], [2, 3, 8, 5]], [[3, 5, 1, 6], [2, 3, 1, 4], [1, 2, 1, 2]], [[2, 4, 7, 5], [2, 3, 5, 3], [2, 2, 4, 2]], [[2, 5, 5, 4], [2, 2, 4, 3], [1, 2, 3, 2]], [[2, 4, 9, 5], [2, 3, 7, 5], [2, 3, 7, 4]], [[5, 1, 8, 8], [3, 1, 7, 5], [3, 1, 7, 3]], [[4, 3, 8, 6], [3, 2, 8, 5], [3, 1, 7, 4]], [[4, 5, 9, 7], [4, 4, 8, 7], [3, 4, 8, 7]], [[4, 2, 6, 9], [3, 2, 4, 8], [1, 1, 1, 7]], [[5, 4, 7, 7], [3, 4, 7, 7], [3, 4, 6, 7]], [[2, 5, 4, 8], [2, 3, 4, 7], [2, 3, 1, 6]], [[4, 4, 8, 1], [4, 2, 8, 1], [4, 1, 5, 1]], [[5, 4, 7, 6], [4, 2, 6, 6], [3, 2, 6, 6]], [[4, 4, 4, 7], [2, 2, 4, 6], [2, 2, 3, 4]], [[4, 3, 8, 7], [4, 3, 7, 7], [4, 2, 6, 5]], [[2, 4, 9, 8], [2, 3, 4, 7], [1, 1, 3, 7]], [[4, 4, 8, 3], [4, 4, 8, 1], [4, 4, 6, 1]], [[3, 3, 8, 7], [1, 3, 8, 6], [1, 2, 5, 5]], [[4, 2, 5, 10], [3, 2, 3, 7], [3, 2, 3, 6]], [[3, 4, 7, 2], [2, 4, 5, 2], [2, 3, 3, 2]], [[3, 3, 6, 8], [3, 2, 4, 7], [3, 2, 3, 7]], [[3, 2, 8, 10], [1, 2, 6, 7], [1, 2, 3, 6]], [[1, 4, 8, 6], [1, 2, 7, 5], [1, 1, 7, 4]], [[3, 2, 7, 4], [2, 1, 6, 3], [2, 1, 5, 2]], [[1, 5, 4, 6], [1, 4, 3, 5], [1, 2, 3, 3]], [[4, 2, 10, 4], [4, 1, 7, 3], [4, 1, 4, 2]], [[3, 5, 3, 6], [2, 4, 2, 3], [1, 3, 2, 1]], [[2, 5, 7, 6], [2, 3, 6, 4], [2, 3, 5, 2]], [[3, 5, 6, 4], [1, 4, 4, 2], [1, 4, 3, 2]], [[1, 1, 6, 10], [1, 1, 5, 9], [1, 1, 5, 8]], [[4, 4, 10, 10], [3, 4, 7, 6], [3, 4, 6, 3]], [[1, 1, 6, 6], [1, 1, 5, 6], [1, 1, 3, 5]], [[0, 0, 0, 0]]]
